NAME : rnd10_20.tsp
TYPE : TSP
DIMENSION : 20
EDGE_WEIGHT_TYPE : EUC_2D
NODE_COORD_SECTION
1 997 816
2 51 63
3 130 58
4 76 261
5 597 753
6 545 751
7 608 700
8 4 303
9 914 911
10 310 114
11 342 742
12 641 494
13 684 250
14 71 589
15 390 894
16 330 940
17 34 834
18 246 808
19 771 367
20 700 681
